c Sudoku solution
p cnf 729 0
122 0
155 0
164 0
173 0
229 0
238 0
297 0
334 0
359 0
396 0
416 0
136 0
439 0
452 0
498 0
533 0
548 0
188 0
199 0
368 0
612 0
628 0
649 0
663 0
483 0
695 0
753 0
765 0
445 0
842 0
262 0
857 0
958 0
944 0
992 0
893 0
732 0
591 0
794 0
835 0
937 0
631 0
461 0
567 0
427 0
474 0
654 0
556 0
251 0
147 0
246 0
343 0
111 0
317 0
213 0
325 0
919 0
923 0
718 0
814 0
878 0
869 0
515 0
524 0
741 0
966 0
726 0
821 0
886 0
275 0
284 0
971 0
985 0
372 0
381 0
579 0
582 0
676 0
687 0
777 0
789 0
